     60      3     36    412     15
     45     36     33
     48     26     18     55     53     35     26      3     32      6     38      8     24      7      8     25     54     38     33     50     21     14      6     45     20     47     55     17     10     38     38     22     54     37     47     58     28      9     15     50     54     13      8     45     31      2     57     18     48     20     23     52     11      1     52     37      3     36     47     23     41     22     33      3     25     20     51     29     46     41     39      5      7      3     53     51      8      7      3     46     46     30     17     43     18     37     32     49     45     40     49     21     51     53     26     11      0      2     42     54     31     55      6     34     48      2     29     37     28     58     32     49     33     36      1      7     50     55     35      3     54      1     28     13     53      3     24     15     47     52      6     39     39     29     30     58     36      9     44     21     30     27      4     32     29      3      0     32     45     16     47     17     57     53      7      2     53      5      6     38      3     44     50      7     37     40     34      0     48      1     29     41     59     43     27     58     14     43     18     23      9     41     44     37     58     21     50     49     59     39     57     11     37     33     52     14     28     50     53     59      9     22      1     38     42     41     51     31     30     31     16      8     48     32     33     22     35     15     27      2     55      5     28     39     49     36      0     42     45     12      0      4     10     26     43     42     50     56     20      3     10     16     21     11     52     26     48     33     56     23     46     37     10      5     27      7     41     17     32     17     23     37     51     11      7     26     25     27     56     51      7     49     48     39     18     38     12     59      2     45     52     39     31      9     33     24      6     47     59     53      3     34     15     10     18     13     23     33     49     39      8     37     28     13     32     44     44      7     37      5     42     26     16     38     19     33     41     25      6     18     24     16     41     38     11      8     45     12     22     42
    -20     11    124     -1     66    133     24     -3     44    -15     -9    103    122     39     75      9     -6     62    -30     58     87     95     26    -16     40     71    108     43    115     85     57    123     91     18    -24      5     27     27     10     15    115    -14     35    -20      6    121     67      7    110     32     46    -33     85    133     35    -20    105     -8    113     54
      6     12     12     13	    380    199     29     33      8      0      0      0      0      0      0    132    249      0      0      0      0      0      0      0      0      0    179      0      0      0      0      0      0      0    169      0      0      0      0      0      0      0      0      0      0     15      0      0      0      0      0      0      0      0      0      0      0      0     43      0      0      0      0      0      0      0      0    258      0
      6     10     11     15	    174    118     30     36      7      0      0      0      6      0      0      0      0      0      1      0      0      0      0      0      0      0     51      0     25     81    118     83     93      0      0      0     43     44      0      0      0      0      0      0      0      0     53      0      0      0     91      9      8      0      0    -20      0      0      0      0      0      0     15      0    100     82      0      0     95
      9     15     12     11	    166    106     33     33      2      0      0      0      0      0      0     62      0      0     93     -5      0      0      0      0      0      0      0      0      0      0      0      0     55      0      0      0     55      0      0      0      0      0      0      0     92    -13      0      0      0      0      0      0      0      0     64      0      0      0     44      0      0     61      0      0      0    -27      0      4     88
     11     13     14     15	    497    269     25     27      5      0      6      0      0      0      0      0      0      0      0      0      0    128      0      0      0      0    120      0      0      0      0      0      0      0      0      0      0    -19      0      0      0    138      0      0    106      0    121      0      0    -63      0      0     45      0      0     46      0      0      8      0      0     29      0     92      0      0     64      0      0
     11     14     15     12	    432    213     21     25      2      0      0      0      0      0      0      0      0      0      0      0      0      0      0      0      0    -82      0      0      0      0      0      0      0    -74      0      0      0      0      0      0      0      0      0      0      0      0      0    131      0      0      0     52      0      0      0      0      0    104     79      0     -1      0      0      0      0      0      0      0      0
      6     10     12     11	    210     75     31     36      8      0      0      0      0      0      0     40      0    135      0      0      0      0    112    101      0      0     55      0      0      0      0      0      0    136      0     71      0      0      0     99      0      0      0      0      0      0      0      0      0      0      0      0      0      0     40     74      0      0      0      0      0      0      0      0      0      0      0      0     20
     12     14     14     15	    397    193     17     34     10    132      0     62      0      0     40      0    -21    -22      0      0      0      0      0      0      0      0      0      0      0      0      0      0      0      0      0      0      0      0      0      0      0      0      0     48     82      0    -31      0      0      0    204      0      0      0      0      0      0      0      0      0      0      0      0      0      0      0    -50      0      0
      7     13     10     14	    361     73     13     31      8    249      0      0      0      0      0    -21      0      0      0      0    130      0      0      0      0      0      0      0      0      0      0     84      0    227      0    162    169    105      0      0      0      3     64      0      0    251      0     -7      0      0      0      0      0      0      0      0     76      0     74      0      0      0      0      0      0      0      0    -45      0
      8     12     11     12	    338    203     14     36      1      0      0      0      0      0    135    -22      0      0     86      0      0      0      0      0     89      0      0      0      0      0      0      0      0    138      0      0      0      0      0      0      0      0      0      0    141      0      0      0      0      0      0      0      0      0      0    233      0      0      0      0      0      0      0      0      0      0      0    158      0
      7     10     11     15	    249     97     29     30      6      0      1     93      0      0      0      0      0     86      0      0      0     47      0      0      0      0     11     40      0      0      0      0    134     41      0      2      0      0      0     83    199      0      0      0      0      0      0      0    132      0      0     -3      0      0      0      0      0    127      0      0      0      0      0      0      0      0      0      0      0
      9     13     14     14	    136     67     25     31      5      0      0     -5      0      0      0      0      0      0      0      0      0      0      0      0      0      0      0     10      0      0      0      0      0      0     83      0      0     86    102    -18      3      0     42      0      0     -9      0     74      0      0      0    -13      0      0      0    107     60      0      0      0      0      0      0      0      0      0      0      0      0
     10     10     15     12	    207     70     28     29      6      0      0      0      0      0      0      0    130      0      0      0      0      0      0      0      0      0      0      0      0      0      0      0      0    134     45      1      0      0      0      0     84      0      0      0      0      7      0      0      0      0      0      0      0    137      0      0      0      0      0      0      0      0      0      0    153      0      0     84      0
     12     14     12     12	    186     60     26     33      3      0      0      0    128      0      0      0      0      0     47      0      0      0     92      0      0      0      0      0      0      0      0      0      0      0    141      0      0      0      0      0      0      0     11      0      3      0    128      0      0      0      0      0      0      0      0      0      0    -25      0      0      0      0      0      0      0    -26      0      0      0
      9     15     11     13	    162     92     27     34      8      0      0      0      0      0    112      0      0      0      0      0      0     92      0      0      0    102      0      0    -10      4      0      0      0    116      0      0      0      0    125      0      0     53      0      0    102      0      0    -27     12      0      0      0     63      0      0      0     41      0      0      0    -16      0      0      0      0      0     56      0      0
      7     15     10     13	    248    134     14     27      3      0      0      0      0      0    101      0      0      0      0      0      0      0      0      0     14    145      0    118      0      0    142      0      0      0     42      0      0      0      0     12     36      0      0      0     51      0      0      0      0      0      0      0      0      0      0      0      0      0      0      0     50      0      0    -12    140      0      0     48      0
      7     12     15     13	    112     69     24     32      9      0      0      0      0      0      0      0      0     89      0      0      0      0      0     14      0      0      0      0      0      0      0      0      0      0      0      0      0     -6      0      0      0      0      0      0      0      0      0      0      0      9      0      0      0      0     11      0     82      0      0      0      0      3      0      0      0     74     45      0      0
      6     10     11     12	    424    265     30     34      9      0      0      0      0    -82      0      0      0      0      0      0      0      0    102    145      0      0      0      0      0      0      0     35      0      0      0    138    210      0      0     65      0      0      0      0      8      0      0      0      0      0      0      0      0      0      0    181      0      0      0      0      0    112      0      0      0      0      0      0      0
      6     14     11     12	    379    232     10     23     10    179     51      0    120      0     55      0      0      0     11      0      0      0      0      0      0      0      0      0      0      0      0      0      0      0      0      0      0      0      0      0      0      0      0      0      0      0    -39      0      0      0      0      0    -11      0      0      0      0      0      0      0    173      0    164     50      0      0      0      0    121
     12     11     11     11	    466    237     34     36      1      0      0      0      0      0      0      0      0      0     40     10      0      0      0    118      0      0      0      0      0      0      0    -39      0      0      0    -24      0     52    225    122    -37      0    192      0    121      0    -17      0    324     52      0     61      0      0      0      0      0      0      0      0      0      0      0      0    -49    280      0      0      0
     12     14     12     10	    155     59     31     32      3      0     25      0      0      0      0      0      0      0      0      0      0      0    -10      0      0      0      0      0      0      0      0     24      0      0     14      0     61      0      0     59      0    -18      0      0      0     71      0      0      0      0      0      0      0      0      0     96      0      0      0     83     74     60      0      0      0      0    102     74      0
      7     14     12     13	    162     90      8     13      9      0     81      0      0      0      0      0      0      0      0      0      0      0      4      0      0      0      0      0      0      0      0      0      0      0      0      0      0     20     41      0      0      0      0    -12      2     22      0      0    106      0      0      0      0      0      0      0      0      0      0      0      0      0      0     60      0      0      0      0     76
     11     10     12     10	    406    205     17     18      9      0    118      0      0      0      0      0      0      0      0      0      0      0      0    142      0      0      0      0      0      0      0      0      0      0     77    213      0     40      0      0      0      0      0      0      0     39      0      0      0      0    127      0      0    256      0      0      0      0     39      0    -20      0      0      0      0      0      0      0    120
     11     13     14     14	    372    147     24     26     10      0     83      0      0      0      0      0     84      0      0      0      0      0      0      0      0     35      0    -39     24      0      0      0    174      0      0      0      0      0      0      0      0      0      0      0      0      0     83      0      0      0    241      0      0      0      0    -74     62      0    -17      0      0      0      0      0      0      0    134    -33      0
     11     11     15     12	    353    172     33     35      6      0     93     55      0      0      0      0      0      0    134      0      0      0      0      0      0      0      0      0      0      0      0    174      0      0      0      0      0    -31      0      0      0    -19      0      0      0    247      0      0      0      0    184      0      0      0    263      0      0      0      0      0      0      0    -24      0      0      0      0      0      0
     12     10     10     12	    404     55     31     35      1      0      0      0      0    -74    136      0    227    138     41      0    134      0    116      0      0      0      0      0      0      0      0      0      0      0      0      0      0    -22      0      0      0    148      0      0      0      0      0      0      0      0      0      0      7      0      0    -50      0      0      0      0      0      0    166      0      0      0      0      8      0
      6     12     13     13	    449    215     21     21      2    169      0      0      0      0      0      0      0      0      0     83     45    141      0     42      0      0      0      0     14      0     77      0      0      0      0      0      8      0      0     68      0      0    109     42    106      0      0     98    -53      0      0      0      0    -46      0      0      0      0      0      0      0      0      0    -16      0    182      0      0      0
      8     14     14     10	    275     77     24     35      5      0      0      0      0      0     71      0    162      0      2      0      1      0      0      0      0    138      0    -24      0      0    213      0      0      0      0      0      0      0      0      0      0      0      0      0      0      0      0      0      0      0      0     32      0      0      0      0      0      0      0      0      0      0      3     69      0     63      0      0      0
      6     14     13     11	    289    181     32     36     10      0     43     55      0      0      0      0    169      0      0      0      0      0      0      0      0    210      0      0     61      0      0      0      0      0      8      0      0      0    193      0      0     59    182    -22      0      0      0      0      0      0     62      0      0      0      0      0      0      0      0    130      0     28      0      0      0      0      0      0      0
      9     12     15     11	    197     62     28     33      2      0     44      0    -19      0      0      0    105      0      0     86      0      0      0      0     -6      0      0     52      0     20     40      0    -31    -22      0      0      0      0      0      0      0      0     84      0     87      0      0      0      0    -27      0      0      0      0      0      0      0      0      0    -13     38      0    134      0      0      0      0      0      0
      9     10     10     13	    392    231      9     14      4      0      0      0      0      0      0      0      0      0      0    102      0      0    125      0      0      0      0    225      0     41      0      0      0      0      0      0    193      0      0    -47      0      0      0      0      0    -20     83    135      0      0      0     31    -20      0     36    196      0      0      0      0      0    120      0      0     62     64      0      0      0
      8     15     10     14	    284    112     22     28      1      0      0      0      0      0     99      0      0      0     83    -18      0      0      0     12      0     65      0    122     59      0      0      0      0      0     68      0      0      0    -47      0     27      0      3      0      0    -55      0      0      0      0      0      0      0      0      0      0      0      0      0      0      0      0      0      0      0      0     46      0      0
      8     10     14     14	    393    256     34     36      6      0      0      0      0      0      0      0      0      0    199      3     84      0      0     36      0      0      0    -37      0      0      0      0      0      0      0      0      0      0      0     27      0    -48      0     68      0      0      0      0      0      0    -24      0      0      0     30      0      0      0      0    -44      0      0     28     96      0      0      0      0    220
     12     13     10     11	    245     87     15     35      1      0      0      0    138      0      0      0      3      0      0      0      0      0     53      0      0      0      0      0    -18      0      0      0    -19    148      0      0     59      0      0      0    -48      0      0      0      0      0      0      4      0      0      0      0      0      0      0      0      0    106      0      0    -12      0      0      0      8      0    175      0    194
      9     11     10     11	    441    173     27     31      5      0      0      0      0      0      0      0     64      0      0     42      0     11      0      0      0      0      0    192      0      0      0      0      0      0    109      0    182     84      0      3      0      0      0      0     82      0      0      0      0    117      0      0     81      0      0      0     -8      0      0      0      0     18      0     79      0      0      0      0      0
     10     13     13     15	    130     73     28     35      6      0      0      0      0      0      0     48      0      0      0      0      0      0      0      0      0      0      0      0      0    -12      0      0      0      0     42      0    -22      0      0      0     68      0      0      0      0      0      0      0     13      0      0      0      0      0      0      0      0      0     41      0      0     11      0      0      0      0     23      0      0
      6     11     15     10	    188     77     35     36      2      0      0     92    106      0      0     82      0    141      0      0      0      3    102     51      0      8      0    121      0      2      0      0      0      0    106      0      0     87      0      0      0      0     82      0      0      0      0     15    -24      0      0      0      0      0      0      0      0      0      0      0      0      0      0     89      0      0      0     -8     65
      8     12     12     10	    485    298     36     36      2     15      0    -13      0      0      0      0    251      0      0     -9      7      0      0      0      0      0      0      0     71     22     39      0    247      0      0      0      0      0    -20    -55      0      0      0      0      0      0      0      0    148      0      0      0      0      0      0      0      0      0     52    152    -36      0      0      0      0      0      0      0      0
      8     11     12     13	    237     51     20     30      1      0     53      0    121      0      0    -31      0      0      0      0      0    128      0      0      0      0    -39    -17      0      0      0     83      0      0      0      0      0      0     83      0      0      0      0      0      0      0      0      0      0      0      0      0      0      0      0     47    119      0      0      0    -18      0      0      0      0      0      0      0    107
     10     13     12     14	    311    181     10     16      7      0      0      0      0    131      0      0     -7      0      0     74      0      0    -27      0      0      0      0      0      0      0      0      0      0      0     98      0      0      0    135      0      0      4      0      0     15      0      0      0      8    200      0      0      0      0    245      0      0      0      0      0    -51      0      0      0      0      0      0    117     87
     10     12     13     15	    428    104     28     30      8      0      0      0      0      0      0      0      0      0    132      0      0      0     12      0      0      0      0    324      0    106      0      0      0      0    -53      0      0      0      0      0      0      0      0     13    -24    148      0      8      0      0      0     54      0      0      0    282      0      0      0     63      0      0      0     -4      0    205      0      0      0
      7     13     12     12	    394    261     31     36      4      0      0      0    -63      0      0      0      0      0      0      0      0      0      0      0      9      0      0     52      0      0      0      0      0      0      0      0      0    -27      0      0      0      0    117      0      0      0      0    200      0      0      0      0      0    235      0      0      0      0      0      0      0      0      0     36      0      0      0      0    244
      9     12     12     11	    308     78     34     35      9      0     91      0      0      0      0    204      0      0      0      0      0      0      0      0      0      0      0      0      0      0    127    241    184      0      0      0     62      0      0      0    -24      0      0      0      0      0      0      0      0      0      0      0      0      0      0      0      0      0      0      0      0      0      0      0      0      0      0      0      0
     10     13     11     13	    103     59     36     36      8      0      9      0      0     52      0      0      0      0     -3    -13      0      0      0      0      0      0      0     61      0      0      0      0      0      0      0     32      0      0     31      0      0      0      0      0      0      0      0      0     54      0      0      0      0     19      0      0      0      0      0      0      0      0     32      0      0    -12      0      0      0
     12     13     11     14	    159     76     28     31      4      0      8      0     45      0      0      0      0      0      0      0      0      0     63      0      0      0    -11      0      0      0      0      0      0      7      0      0      0      0    -20      0      0      0     81      0      0      0      0      0      0      0      0      0      0      0      0     55      0      0      6      0      0      0      0    -22      0      0      0      0      0
     11     15     15     14	    461    191     27     30      5      0      0      0      0      0      0      0      0      0      0      0    137      0      0      0      0      0      0      0      0      0    256      0      0      0    -46      0      0      0      0      0      0      0      0      0      0      0      0      0      0    235      0     19      0      0      0     83      0      0      0      0      0      0      0      0      0      0      0      0      0
     11     13     13     14	    480    133     20     34      7      0      0     64      0      0     40      0      0      0      0      0      0      0      0      0     11      0      0      0      0      0      0      0    263      0      0      0      0      0     36      0     30      0      0      0      0      0      0    245      0      0      0      0      0      0      0      0      0      0      0      0      0      0      0      0      0      0      0     29      0
      9     15     10     12	    444    297     23     28      8      0    -20      0     46      0     74      0      0    233      0    107      0      0      0      0      0    181      0      0     96      0      0    -74      0    -50      0      0      0      0    196      0      0      0      0      0      0      0     47      0    282      0      0      0     55     83      0      0      0    -63      0      0      0      0      0      0      0      0      0      0      0
      6     12     10     10	    219    136     11     14      3      0      0      0      0      0      0      0     76      0      0     60      0      0     41      0     82      0      0      0      0      0      0     62      0      0      0      0      0      0      0      0      0      0     -8      0      0      0    119      0      0      0      0      0      0      0      0      0      0    -22      0      0      0      0      0      0    -28      0      0      0      0
      7     10     11     13	    355    186     17     21     10      0      0      0      0    104      0      0      0      0    127      0      0    -25      0      0      0      0      0      0      0      0      0      0      0      0      0      0      0      0      0      0      0    106      0      0      0      0      0      0      0      0      0      0      0      0      0    -63    -22      0     16      0      0      0      0      0      0      0      0      0      0
      6     15     11     11	    129     61     27     36      9     43      0     44      8     79      0      0     74      0      0      0      0      0      0      0      0      0      0      0      0      0     39    -17      0      0      0      0      0      0      0      0      0      0      0     41      0     52      0      0      0      0      0      0      6      0      0      0      0     16      0     35      2      0      0      0     94      0      0      0      0
     12     15     11     10	    342    180     20     29      4      0      0      0      0      0      0      0      0      0      0      0      0      0      0      0      0      0      0      0     83      0      0      0      0      0      0      0    130    -13      0      0    -44      0      0      0      0    152      0      0     63      0      0      0      0      0      0      0      0      0     35      0      0      0      0      0    -43      0      0      0      0
      6     14     12     14	    309    183     10     21      1      0      0      0      0     -1      0      0      0      0      0      0      0      0    -16     50      0      0    173      0     74      0    -20      0      0      0      0      0      0     38      0      0      0    -12      0      0      0    -36    -18    -51      0      0      0      0      0      0      0      0      0      0      2      0      0     21      0      0      0      0      0      0      0
      7     11     13     13	    183    101      8     16      3      0      0     61     29      0      0      0      0      0      0      0      0      0      0      0      3    112      0      0     60      0      0      0      0      0      0      0     28      0    120      0      0      0     18     11      0      0      0      0      0      0      0      0      0      0      0      0      0      0      0      0     21      0      0      0      0     19      0    145      0
      9     11     10     12	    420    205     19     35      3      0     15      0      0      0      0      0      0      0      0      0      0      0      0      0      0      0    164      0      0      0      0      0    -24    166      0      3      0    134      0      0     28      0      0      0      0      0      0      0      0      0      0     32      0      0      0      0      0      0      0      0      0      0      0      0      0      0      0      0    120
      7     11     13     13	    122     78     23     36      3      0      0      0     92      0      0      0      0      0      0      0      0      0      0    -12      0      0     50      0      0     60      0      0      0      0    -16     69      0      0      0      0     96      0     79      0     89      0      0      0     -4     36      0      0    -22      0      0      0      0      0      0      0      0      0      0      0      0     -3      0      0      0
      8     11     10     10	    256    132     33     35     10      0    100      0      0      0      0      0      0      0      0      0    153      0      0    140      0      0      0    -49      0      0      0      0      0      0      0      0      0      0     62      0      0      8      0      0      0      0      0      0      0      0      0      0      0      0      0      0    -28      0     94    -43      0      0      0      0      0      0      0      0      0
     12     10     13     14	    466    143     30     34     10      0     82    -27      0      0      0      0      0      0      0      0      0    -26      0      0     74      0      0    280      0      0      0      0      0      0    182     63      0      0     64      0      0      0      0      0      0      0      0      0    205      0      0    -12      0      0      0      0      0      0      0      0      0     19      0     -3      0      0      0      0    -25
     11     13     10     15	    344     85     34     35      9      0      0      0     64      0      0    -50      0      0      0      0      0      0     56      0     45      0      0      0    102      0      0    134      0      0      0      0      0      0      0     46      0    175      0     23      0      0      0      0      0      0      0      0      0      0      0      0      0      0      0      0      0      0      0      0      0      0      0      1      0
      8     11     14     14	    363    241     29     29      6    258      0      4      0      0      0      0    -45    158      0      0     84      0      0     48      0      0      0      0     74      0      0    -33      0      8      0      0      0      0      0      0      0      0      0      0     -8      0      0    117      0      0      0      0      0      0     29      0      0      0      0      0      0    145      0      0      0      0      1      0    144
      9     12     13     14	    307    203      9     33      8      0     95     88      0      0     20      0      0      0      0      0      0      0      0      0      0      0    121      0      0     76    120      0      0      0      0      0      0      0      0      0    220    194      0      0     65      0    107     87      0    244      0      0      0      0      0      0      0      0      0      0      0      0    120      0      0    -25      0    144      0